100
128
12
15
26
4
55
20
4
8
44
55
38
30
23
51
57
2
47
17
27
9
24
1
50
3
61
38
2
46
50
31
60
45
61
35
42
35
44
21
3
50
31
8
28
37
34
26
29
61
1
58
50
44
4
48
48
45
3
52
49
50
48
2
50
50
54
12
24
52
42
64
24
64
30
31
56
39
47
56
58
52
14
56
36
21
13
1
63
41
41
46
5
21
22
52
18
8
53
55
6
17